NAME : mr23
COMMENT : 23-city problem (DISC)
TYPE : TSP
DIMENSION : 23
EDGE_WEIGHT_TYPE : EUC_2D
NODE_COORD_SECTION
1 52 1
2 95 95
3 77 15
4 29 43
5 23 35
6 69 87
7 17 43
8 40 83
9 62 72
10 42 12
11 1 60
12 89 13
13 89 8
14 31 84
15 59 47
16 98 17
17 85 55
18 7 59
19 30 78
20 29 66
21 83 56
22 63 18
23 12 25
EOF
